(define-fun ?action_s1_FILL () (_ BitVec 3) #b001)
(declare-fun ?action_NEW_1 () (_ BitVec 3) #b001)
(declare-fun ?src_t_NEW_1 () (_ BitVec 1) )
(declare-fun ?src_1_s_FILL () (_ BitVec 1))


(declare-fun ?action_s2_FILL () (_ BitVec 3))
(declare-fun ?action_s3_FILL () (_ BitVec 3))
(declare-fun ?action_s4_FILL () (_ BitVec 3))
(declare-fun ?action_s5_FILL () (_ BitVec 3))
(declare-fun ?action_s6_FILL () (_ BitVec 3))
(declare-fun ?action_s7_FILL () (_ BitVec 3))
(declare-fun ?action_s8_FILL () (_ BitVec 3))
(declare-fun ?src_2_s_FILL () (_ BitVec 1))
(declare-fun ?src_3_s_FILL () (_ BitVec 1))
(declare-fun ?src_4_s_FILL () (_ BitVec 1))
(declare-fun ?src_5_s_FILL () (_ BitVec 1))
(declare-fun ?src_6_s_FILL () (_ BitVec 1))
(declare-fun ?src_7_s_FILL () (_ BitVec 1))
(declare-fun ?src_8_s_FILL () (_ BitVec 1))
(declare-fun ?action_NEW_2 () (_ BitVec 3))
(declare-fun ?src_t_NEW_2 () (_ BitVec 1))
(declare-fun ?action_NEW_3 () (_ BitVec 3))
(declare-fun ?src_t_NEW_3 () (_ BitVec 1))
(declare-fun ?action_NEW_4 () (_ BitVec 3))
(declare-fun ?src_t_NEW_4 () (_ BitVec 1))
(declare-fun ?action_NEW_5 () (_ BitVec 3))
(declare-fun ?src_t_NEW_5 () (_ BitVec 1))
(declare-fun ?action_NEW_6 () (_ BitVec 3))
(declare-fun ?src_t_NEW_6 () (_ BitVec 1))
(declare-fun ?action_NEW_7 () (_ BitVec 3))
(declare-fun ?src_t_NEW_7 () (_ BitVec 1))
(declare-fun ?action_NEW_8 () (_ BitVec 3))
(declare-fun ?src_t_NEW_8 () (_ BitVec 1))
(assert (forall ((elM_t_0_1 (_ BitVec 1))
         (src (_ BitVec 1))
         (elM_t_1_1 (_ BitVec 1))
         (src_SYMBOLIC (_ BitVec 1))
         (op_SYMBOLIC (_ BitVec 1))
         (elM_t_1_1_SYMBOLIC (_ BitVec 1))
         (elM_t_0_1_SYMBOLIC (_ BitVec 1))
         (op (_ BitVec 1))
         (elM_s_0_1 (_ BitVec 1))
         (elM_s_1_1 (_ BitVec 1))
         (elM_s_1_1_SYMBOLIC (_ BitVec 1))
         (elM_s_0_1_SYMBOLIC (_ BitVec 1))
         (action_NEW (_ BitVec 3))
         (src_t_NEW (_ BitVec 1))
         (elM_s_0_element1 (_ BitVec 1))
         (elM_s_1_element1 (_ BitVec 1))
         (src_8_s_FILL_SYMBOLIC (_ BitVec 1))
         (src_7_s_FILL_SYMBOLIC (_ BitVec 1))
         (src_6_s_FILL_SYMBOLIC (_ BitVec 1))
         (src_5_s_FILL_SYMBOLIC (_ BitVec 1))
         (src_4_s_FILL_SYMBOLIC (_ BitVec 1))
         (src_3_s_FILL_SYMBOLIC (_ BitVec 1))
         (src_2_s_FILL_SYMBOLIC (_ BitVec 1))
         (src_1_s_FILL_SYMBOLIC (_ BitVec 1))
         (elM_s_1_element1_SYMBOLIC (_ BitVec 1))
         (elM_s_0_element1_SYMBOLIC (_ BitVec 1))
         (action_s8_FILL_SYMBOLIC (_ BitVec 3))
         (action_s7_FILL_SYMBOLIC (_ BitVec 3))
         (action_s6_FILL_SYMBOLIC (_ BitVec 3))
         (action_s5_FILL_SYMBOLIC (_ BitVec 3))
         (action_s4_FILL_SYMBOLIC (_ BitVec 3))
         (action_s3_FILL_SYMBOLIC (_ BitVec 3))
         (action_s2_FILL_SYMBOLIC (_ BitVec 3))
         (action_s1_FILL_SYMBOLIC (_ BitVec 3)))
  (let ((a!1 (and (and (= src src_SYMBOLIC) (= op_SYMBOLIC #b0))
                  (= elM_t_1_1 elM_t_1_1_SYMBOLIC)
                  (= elM_t_0_1 elM_t_0_1_SYMBOLIC)))
        (a!2 (and (and (= src src_SYMBOLIC) (= op_SYMBOLIC #b1))
                  (= elM_t_1_1 elM_t_1_1_SYMBOLIC)
                  (= elM_t_0_1 elM_t_0_1_SYMBOLIC)))
        (a!3 (not (and (not (= elM_t_0_1 src)) (not (= elM_t_1_1 src)))))
        (a!4 (and (and (= src src_SYMBOLIC) (= op op_SYMBOLIC))
                  (= elM_t_1_1 elM_t_1_1_SYMBOLIC)
                  (= elM_t_0_1 elM_t_0_1_SYMBOLIC)))
        (a!6 (or (not (= elM_s_1_1 src))
                 (and (and (= src src_SYMBOLIC) (= op_SYMBOLIC #b0))
                      (= elM_s_1_1 elM_s_1_1_SYMBOLIC)
                      (= elM_s_0_1 elM_s_0_1_SYMBOLIC))))
        (a!7 (or (not (= elM_s_0_1 src))
                 (and (and (= src src_SYMBOLIC) (= op_SYMBOLIC #b1))
                      (= elM_s_1_1 elM_s_1_1_SYMBOLIC)
                      (= elM_s_0_1 elM_s_0_1_SYMBOLIC))))
        (a!8 (not (and (not (= elM_s_0_1 src)) (not (= elM_s_1_1 src)))))
        (a!12 (not (and (= elM_t_1_1 src) (not (= src src_t_NEW)))))
        (a!13 (not (and (= elM_t_0_1 src) (not (= src src_t_NEW)))))
        (a!18 (not (or (= src ?src_1_s_FILL)
                       (= src ?src_2_s_FILL)
                       (= src ?src_3_s_FILL)
                       (= src ?src_4_s_FILL)
                       (= src ?src_5_s_FILL)
                       (= src ?src_6_s_FILL)
                       (= src ?src_7_s_FILL)
                       (= src ?src_8_s_FILL))))
        (a!19 (and (= src_8_s_FILL_SYMBOLIC ?src_8_s_FILL)
                   (= src_7_s_FILL_SYMBOLIC ?src_7_s_FILL)
                   (= src_6_s_FILL_SYMBOLIC ?src_6_s_FILL)
                   (= src_5_s_FILL_SYMBOLIC ?src_5_s_FILL)
                   (= src_4_s_FILL_SYMBOLIC ?src_4_s_FILL)
                   (= src_3_s_FILL_SYMBOLIC ?src_3_s_FILL)
                   (= src_2_s_FILL_SYMBOLIC ?src_2_s_FILL)
                   (= src_1_s_FILL_SYMBOLIC ?src_1_s_FILL)
                   (= src src_SYMBOLIC))))
  (let ((a!5 (and (not (and (= elM_t_0_1 src) (= elM_t_1_1 src)))
                  (not (and (= elM_t_1_1 src) (= elM_t_0_1 src)))
                  (or (not (= elM_t_1_1 src)) a!1)
                  (or (not (= elM_t_0_1 src)) a!2)
                  (or a!3 a!4)))
        (a!9 (or a!8
                 (and (and (= src src_SYMBOLIC) (= op op_SYMBOLIC))
                      (= elM_s_1_1 elM_s_1_1_SYMBOLIC)
                      (= elM_s_0_1 elM_s_0_1_SYMBOLIC))))
        (a!14 (or (not (and (= action_NEW #b001) (= src src_t_NEW))) a!1))
        (a!15 (or (not (and (= action_NEW #b000) (= src src_t_NEW))) a!2))
        (a!16 (and (not (and (= action_NEW #b000) (= src src_t_NEW)))
                   (not (and (= action_NEW #b001) (= src src_t_NEW)))
                   a!13
                   a!12))
        (a!20 (and a!19
                   (= op_SYMBOLIC #b0)
                   (= elM_s_1_element1 elM_s_1_element1_SYMBOLIC)
                   (= elM_s_0_element1 elM_s_0_element1_SYMBOLIC)
                   (= action_s8_FILL_SYMBOLIC ?action_s8_FILL)
                   (= action_s7_FILL_SYMBOLIC ?action_s7_FILL)
                   (= action_s6_FILL_SYMBOLIC ?action_s6_FILL)
                   (= action_s5_FILL_SYMBOLIC ?action_s5_FILL)
                   (= action_s4_FILL_SYMBOLIC ?action_s4_FILL)
                   (= action_s3_FILL_SYMBOLIC ?action_s3_FILL)
                   (= action_s2_FILL_SYMBOLIC ?action_s2_FILL)
                   (= action_s1_FILL_SYMBOLIC ?action_s1_FILL)))
        (a!22 (and a!19
                   (= op_SYMBOLIC #b1)
                   (= elM_s_1_element1 elM_s_1_element1_SYMBOLIC)
                   (= elM_s_0_element1 elM_s_0_element1_SYMBOLIC)
                   (= action_s8_FILL_SYMBOLIC ?action_s8_FILL)
                   (= action_s7_FILL_SYMBOLIC ?action_s7_FILL)
                   (= action_s6_FILL_SYMBOLIC ?action_s6_FILL)
                   (= action_s5_FILL_SYMBOLIC ?action_s5_FILL)
                   (= action_s4_FILL_SYMBOLIC ?action_s4_FILL)
                   (= action_s3_FILL_SYMBOLIC ?action_s3_FILL)
                   (= action_s2_FILL_SYMBOLIC ?action_s2_FILL)
                   (= action_s1_FILL_SYMBOLIC ?action_s1_FILL)))
        (a!40 (and (not (and (= ?action_s1_FILL #b000) (= src ?src_1_s_FILL)))
                   (not (and (= ?action_s2_FILL #b000) (= src ?src_2_s_FILL)))
                   (not (and (= ?action_s3_FILL #b000) (= src ?src_3_s_FILL)))
                   (not (and (= ?action_s4_FILL #b000) (= src ?src_4_s_FILL)))
                   (not (and (= ?action_s5_FILL #b000) (= src ?src_5_s_FILL)))
                   (not (and (= ?action_s6_FILL #b000) (= src ?src_6_s_FILL)))
                   (not (and (= ?action_s7_FILL #b000) (= src ?src_7_s_FILL)))
                   (not (and (= ?action_s8_FILL #b000) (= src ?src_8_s_FILL)))
                   (not (and (= ?action_s1_FILL #b001) (= src ?src_1_s_FILL)))
                   (not (and (= ?action_s2_FILL #b001) (= src ?src_2_s_FILL)))
                   (not (and (= ?action_s3_FILL #b001) (= src ?src_3_s_FILL)))
                   (not (and (= ?action_s4_FILL #b001) (= src ?src_4_s_FILL)))
                   (not (and (= ?action_s5_FILL #b001) (= src ?src_5_s_FILL)))
                   (not (and (= ?action_s6_FILL #b001) (= src ?src_6_s_FILL)))
                   (not (and (= ?action_s7_FILL #b001) (= src ?src_7_s_FILL)))
                   (not (and (= ?action_s8_FILL #b001) (= src ?src_8_s_FILL)))
                   (not (and (= elM_s_0_element1 src) a!18))
                   (not (and (= elM_s_1_element1 src) a!18)))))
  (let ((a!10 (and (not (and (= elM_s_0_1 src) (= elM_s_1_1 src)))
                   (not (and (= elM_s_1_1 src) (= elM_s_0_1 src)))
                   a!6
                   a!7
                   a!9))
        (a!17 (and (or (= action_NEW #b000) (= action_NEW #b001))
                   (not (and (= elM_t_0_1 src) (= elM_t_1_1 src)))
                   (not (and (= elM_t_1_1 src) (= elM_t_0_1 src)))
                   (or a!12 a!1)
                   (or a!13 a!2)
                   a!14
                   a!15
                   (or (not a!16) a!4)))
        (a!21 (or (not (and (= elM_s_1_element1 src) a!18)) a!20))
        (a!23 (or (not (and (= elM_s_0_element1 src) a!18)) a!22))
        (a!24 (or (not (and (= ?action_s8_FILL #b001) (= src ?src_8_s_FILL)))
                  a!20))
        (a!25 (or (not (and (= ?action_s7_FILL #b001) (= src ?src_7_s_FILL)))
                  a!20))
        (a!26 (or (not (and (= ?action_s6_FILL #b001) (= src ?src_6_s_FILL)))
                  a!20))
        (a!27 (or (not (and (= ?action_s5_FILL #b001) (= src ?src_5_s_FILL)))
                  a!20))
        (a!28 (or (not (and (= ?action_s4_FILL #b001) (= src ?src_4_s_FILL)))
                  a!20))
        (a!29 (or (not (and (= ?action_s3_FILL #b001) (= src ?src_3_s_FILL)))
                  a!20))
        (a!30 (or (not (and (= ?action_s2_FILL #b001) (= src ?src_2_s_FILL)))
                  a!20))
        (a!31 (or (not (and (= ?action_s1_FILL #b001) (= src ?src_1_s_FILL)))
                  a!20))
        (a!32 (or (not (and (= ?action_s8_FILL #b000) (= src ?src_8_s_FILL)))
                  a!22))
        (a!33 (or (not (and (= ?action_s7_FILL #b000) (= src ?src_7_s_FILL)))
                  a!22))
        (a!34 (or (not (and (= ?action_s6_FILL #b000) (= src ?src_6_s_FILL)))
                  a!22))
        (a!35 (or (not (and (= ?action_s5_FILL #b000) (= src ?src_5_s_FILL)))
                  a!22))
        (a!36 (or (not (and (= ?action_s4_FILL #b000) (= src ?src_4_s_FILL)))
                  a!22))
        (a!37 (or (not (and (= ?action_s3_FILL #b000) (= src ?src_3_s_FILL)))
                  a!22))
        (a!38 (or (not (and (= ?action_s2_FILL #b000) (= src ?src_2_s_FILL)))
                  a!22))
        (a!39 (or (not (and (= ?action_s1_FILL #b000) (= src ?src_1_s_FILL)))
                  a!22)))
  (let ((a!11 (not (and (or (not a!5) a!10) (or (not a!10) a!5))))
        (a!41 (and a!21
                   a!23
                   a!24
                   a!25
                   a!26
                   a!27
                   a!28
                   a!29
                   a!30
                   a!31
                   a!32
                   a!33
                   a!34
                   a!35
                   a!36
                   a!37
                   a!38
                   a!39
                   (or (not a!40)
                       (and a!19
                            (= op op_SYMBOLIC)
                            (= elM_s_1_element1 elM_s_1_element1_SYMBOLIC)
                            (= elM_s_0_element1 elM_s_0_element1_SYMBOLIC)
                            (= action_s8_FILL_SYMBOLIC ?action_s8_FILL)
                            (= action_s7_FILL_SYMBOLIC ?action_s7_FILL)
                            (= action_s6_FILL_SYMBOLIC ?action_s6_FILL)
                            (= action_s5_FILL_SYMBOLIC ?action_s5_FILL)
                            (= action_s4_FILL_SYMBOLIC ?action_s4_FILL)
                            (= action_s3_FILL_SYMBOLIC ?action_s3_FILL)
                            (= action_s2_FILL_SYMBOLIC ?action_s2_FILL)
                            (= action_s1_FILL_SYMBOLIC ?action_s1_FILL))))))
  (let ((a!42 (or (not (and (= src_t_NEW ?src_t_NEW_1)
                            (= action_NEW ?action_NEW_1)))
                  a!41)))
  (let ((a!43 (or (not (and (= src_t_NEW ?src_t_NEW_2)
                            (= action_NEW ?action_NEW_2)))
                  (and (and (= src_t_NEW ?src_t_NEW_1)
                            (= action_NEW ?action_NEW_1))
                       a!42))))
  (let ((a!44 (or (not (and (= src_t_NEW ?src_t_NEW_3)
                            (= action_NEW ?action_NEW_3)))
                  (and (and (= src_t_NEW ?src_t_NEW_2)
                            (= action_NEW ?action_NEW_2))
                       a!43))))
  (let ((a!45 (or (not (and (= src_t_NEW ?src_t_NEW_4)
                            (= action_NEW ?action_NEW_4)))
                  (and (and (= src_t_NEW ?src_t_NEW_3)
                            (= action_NEW ?action_NEW_3))
                       a!44))))
  (let ((a!46 (or (not (and (= src_t_NEW ?src_t_NEW_5)
                            (= action_NEW ?action_NEW_5)))
                  (and (and (= src_t_NEW ?src_t_NEW_4)
                            (= action_NEW ?action_NEW_4))
                       a!45))))
  (let ((a!47 (or (not (and (= src_t_NEW ?src_t_NEW_6)
                            (= action_NEW ?action_NEW_6)))
                  (and (and (= src_t_NEW ?src_t_NEW_5)
                            (= action_NEW ?action_NEW_5))
                       a!46))))
  (let ((a!48 (or (not (and (= src_t_NEW ?src_t_NEW_7)
                            (= action_NEW ?action_NEW_7)))
                  (and (and (= src_t_NEW ?src_t_NEW_6)
                            (= action_NEW ?action_NEW_6))
                       a!47))))
  (let ((a!49 (or (not (and (= src_t_NEW ?src_t_NEW_8)
                            (= action_NEW ?action_NEW_8)))
                  (and (and (= src_t_NEW ?src_t_NEW_7)
                            (= action_NEW ?action_NEW_7))
                       a!48))))
  (let ((a!50 (and (not (and (= elM_s_0_element1 src) (= elM_s_1_element1 src)))
                   (not (and (= elM_s_1_element1 src) (= elM_s_0_element1 src)))
                   (= src_t_NEW ?src_t_NEW_8)
                   (= action_NEW ?action_NEW_8)
                   a!49)))
    (or a!11 (and (or (not a!17) a!50) (or (not a!50) a!17))))))))))))))))))

(check-sat)
